100
0 -92 50 -24 -98 0 0 0 34 28 64 0 0 0 20 -44 0 28 60 0 0 -8 0 84 92 0 0 2 18 44 70 0 0 0 0 0 0 28 -48 80 0 0 0 0 -8 -96 74 -12 36 0 54 0 94 76 0 0 42 68 -76 0 98 -94 0 -66 0 44 0 0 -66 0 0 62 0 0 0 0 0 0 0 0 76 0 -2 24 2 -60 0 0 0 0 -98 8 42 -18 0 0 -56 -22 0 0
-23 0 0 0 0 37 87 89 0 0 0 83 -31 -23 0 0 -53 0 0 47 -73 0 -43 0 0 -7 91 0 0 0 0 -97 75 -13 -97 83 -17 0 0 0 19 -77 -71 33 0 0 0 0 0 -43 0 49 0 0 57 59 0 0 0 -53 0 0 33 0 -37 0 -7 -41 0 -9 -47 0 -3 -5 -91 97 29 3 69 -35 0 -15 0 0 0 0 -65 -93 -11 13 0 0 0 0 23 -27 0 0 15 29
